c generated by sgen
p cnf 69 148
-2 -3 -4 0
-1 -3 -4 0
-1 -2 -4 0
-1 -2 -3 0
-6 -7 -8 0
-5 -7 -8 0
-5 -6 -8 0
-5 -6 -7 0
-10 -11 -12 0
-9 -11 -12 0
-9 -10 -12 0
-9 -10 -11 0
-14 -15 -16 0
-13 -15 -16 0
-13 -14 -16 0
-13 -14 -15 0
-18 -19 -20 0
-17 -19 -20 0
-17 -18 -20 0
-17 -18 -19 0
-22 -23 -24 0
-21 -23 -24 0
-21 -22 -24 0
-21 -22 -23 0
-26 -27 -28 0
-25 -27 -28 0
-25 -26 -28 0
-25 -26 -27 0
-30 -31 -32 0
-29 -31 -32 0
-29 -30 -32 0
-29 -30 -31 0
-34 -35 -36 0
-33 -35 -36 0
-33 -34 -36 0
-33 -34 -35 0
-38 -39 -40 0
-37 -39 -40 0
-37 -38 -40 0
-37 -38 -39 0
-42 -43 -44 0
-41 -43 -44 0
-41 -42 -44 0
-41 -42 -43 0
-46 -47 -48 0
-45 -47 -48 0
-45 -46 -48 0
-45 -46 -47 0
-50 -51 -52 0
-49 -51 -52 0
-49 -50 -52 0
-49 -50 -51 0
-54 -55 -56 0
-53 -55 -56 0
-53 -54 -56 0
-53 -54 -55 0
-58 -59 -60 0
-57 -59 -60 0
-57 -58 -60 0
-57 -58 -59 0
-62 -63 -64 0
-61 -63 -64 0
-61 -62 -64 0
-61 -62 -63 0
-65 -66 -67 0
-65 -66 -68 0
-65 -66 -69 0
-65 -67 -68 0
-65 -67 -69 0
-65 -68 -69 0
-66 -67 -68 0
-66 -67 -69 0
-66 -68 -69 0
-67 -68 -69 0
11 25 13 0
20 25 13 0
20 11 13 0
20 11 25 0
60 18 29 0
46 18 29 0
46 60 29 0
46 60 18 0
40 33 2 0
5 33 2 0
5 40 2 0
5 40 33 0
22 37 45 0
63 37 45 0
63 22 45 0
63 22 37 0
47 28 34 0
43 28 34 0
43 47 34 0
43 47 28 0
17 50 67 0
23 50 67 0
23 17 67 0
23 17 50 0
3 41 9 0
21 41 9 0
21 3 9 0
21 3 41 0
54 44 32 0
14 44 32 0
14 54 32 0
14 54 44 0
51 39 10 0
8 39 10 0
8 51 10 0
8 51 39 0
61 15 1 0
69 15 1 0
69 61 1 0
69 61 15 0
24 16 36 0
57 16 36 0
57 24 36 0
57 24 16 0
4 26 66 0
30 26 66 0
30 4 66 0
30 4 26 0
56 64 6 0
19 64 6 0
19 56 6 0
19 56 64 0
65 42 59 0
38 42 59 0
38 65 59 0
38 65 42 0
31 52 62 0
35 52 62 0
35 31 62 0
35 31 52 0
53 12 48 0
68 12 48 0
68 53 48 0
68 53 12 0
7 49 27 0
7 49 58 0
7 49 55 0
7 27 58 0
7 27 55 0
7 58 55 0
49 27 58 0
49 27 55 0
49 58 55 0
27 58 55 0
